<?xml version = "1.0" standalone="yes"?>
<!-- This file has been generated by DOcplex version 2.23.222  -->
<CPLEXSolution version="1.0">
 <header
   problemName="CVRP"
   objectiveValue="15757.4"
  />
 <variables>
  <variable name="x_0_1" index="0" value="1.00000"/>
  <variable name="x_0_2" index="1" value="1.00000"/>
  <variable name="x_0_3" index="2" value="1.00000"/>
  <variable name="x_0_4" index="3" value="1.00000"/>
  <variable name="x_0_6" index="5" value="1.00000"/>
  <variable name="x_0_7" index="6" value="1.00000"/>
  <variable name="x_0_9" index="8" value="1.00000"/>
  <variable name="x_0_10" index="9" value="1.00000"/>
  <variable name="x_0_12" index="11" value="1.00000"/>
  <variable name="x_0_13" index="12" value="1.00000"/>
  <variable name="x_0_15" index="14" value="1.00000"/>
  <variable name="x_0_16" index="15" value="1.00000"/>
  <variable name="x_0_17" index="16" value="1.00000"/>
  <variable name="x_0_19" index="18" value="1.00000"/>
  <variable name="x_0_20" index="19" value="1.00000"/>
  <variable name="x_0_23" index="22" value="1.00000"/>
  <variable name="x_0_25" index="24" value="1.00000"/>
  <variable name="x_0_26" index="25" value="1.00000"/>
  <variable name="x_1_18" index="46" value="1.00000"/>
  <variable name="x_2_0" index="58" value="1.00000"/>
  <variable name="x_3_0" index="87" value="1.00000"/>
  <variable name="x_4_0" index="116" value="1.00000"/>
  <variable name="x_5_0" index="145" value="1.00000"/>
  <variable name="x_6_0" index="174" value="1.00000"/>
  <variable name="x_7_11" index="213" value="1.00000"/>
  <variable name="x_8_28" index="259" value="1.00000"/>
  <variable name="x_9_0" index="261" value="1.00000"/>
  <variable name="x_10_14" index="303" value="1.00000"/>
  <variable name="x_11_0" index="319" value="1.00000"/>
  <variable name="x_12_0" index="348" value="1.00000"/>
  <variable name="x_13_29" index="405" value="1.00000"/>
  <variable name="x_14_0" index="406" value="1.00000"/>
  <variable name="x_15_0" index="435" value="1.00000"/>
  <variable name="x_16_0" index="464" value="1.00000"/>
  <variable name="x_17_24" index="516" value="1.00000"/>
  <variable name="x_18_0" index="522" value="1.00000"/>
  <variable name="x_19_0" index="551" value="1.00000"/>
  <variable name="x_20_22" index="601" value="1.00000"/>
  <variable name="x_21_0" index="609" value="1.00000"/>
  <variable name="x_22_27" index="664" value="1.00000"/>
  <variable name="x_23_0" index="667" value="1.00000"/>
  <variable name="x_24_0" index="696" value="1.00000"/>
  <variable name="x_25_8" index="733" value="1.00000"/>
  <variable name="x_26_21" index="775" value="1.00000"/>
  <variable name="x_27_0" index="783" value="1.00000"/>
  <variable name="x_28_0" index="812" value="1.00000"/>
  <variable name="x_29_5" index="846" value="1.00000"/>
  <variable name="u_1" index="870" value="53.00000"/>
  <variable name="u_2" index="871" value="48.00000"/>
  <variable name="u_3" index="872" value="59.00000"/>
  <variable name="u_4" index="873" value="42.00000"/>
  <variable name="u_5" index="874" value="67.00000"/>
  <variable name="u_6" index="875" value="67.00000"/>
  <variable name="u_7" index="876" value="55.00000"/>
  <variable name="u_8" index="877" value="27.00000"/>
  <variable name="u_9" index="878" value="61.00000"/>
  <variable name="u_10" index="879" value="13.00000"/>
  <variable name="u_11" index="880" value="60.00000"/>
  <variable name="u_12" index="881" value="60.00000"/>
  <variable name="u_13" index="882" value="8.00000"/>
  <variable name="u_14" index="883" value="53.00000"/>
  <variable name="u_15" index="884" value="59.00000"/>
  <variable name="u_16" index="885" value="61.00000"/>
  <variable name="u_17" index="886" value="27.00000"/>
  <variable name="u_18" index="887" value="64.00000"/>
  <variable name="u_19" index="888" value="37.00000"/>
  <variable name="u_20" index="889" value="15.00000"/>
  <variable name="u_21" index="890" value="64.00000"/>
  <variable name="u_22" index="891" value="61.00000"/>
  <variable name="u_23" index="892" value="66.00000"/>
  <variable name="u_24" index="893" value="61.00000"/>
  <variable name="u_25" index="894" value="22.00000"/>
  <variable name="u_26" index="895" value="6.00000"/>
  <variable name="u_27" index="896" value="62.00000"/>
  <variable name="u_28" index="897" value="66.00000"/>
  <variable name="u_29" index="898" value="58.00000"/>
 </variables>
</CPLEXSolution>
